p cnf 29 116
1 2 3 0
1 2 4 0
1 3 4 0
2 3 4 0
5 6 7 8 0
5 6 7 9 0
5 6 7 10 0
5 6 8 9 0
5 6 8 10 0
5 6 9 10 0
5 7 8 9 0
5 7 8 10 0
5 7 9 10 0
5 8 9 10 0
6 7 8 9 0
6 7 8 10 0
6 7 9 10 0
6 8 9 10 0
7 8 9 10 0
11 12 13 0
11 12 14 0
11 13 14 0
12 13 14 0
15 16 17 0
15 16 18 0
15 17 18 0
16 17 18 0
19 20 21 22 0
19 20 21 23 0
19 20 21 24 0
19 20 22 23 0
19 20 22 24 0
19 20 23 24 0
19 21 22 23 0
19 21 22 24 0
19 21 23 24 0
19 22 23 24 0
20 21 22 23 0
20 21 22 24 0
20 21 23 24 0
20 22 23 24 0
21 22 23 24 0
25 26 27 28 0
25 26 27 29 0
25 26 27 0
25 26 28 29 0
25 26 28 0
25 26 29 0
25 27 28 29 0
25 27 28 0
25 27 29 0
25 28 29 0
26 27 28 29 0
26 27 28 0
26 27 29 0
26 28 29 0
27 28 29 0
-1 -5 -15 0
-1 -5 -19 0
-1 -5 -25 0
-1 -15 -19 0
-1 -15 -25 0
-1 -19 -25 0
-5 -15 -19 0
-5 -15 -25 0
-5 -19 -25 0
-15 -19 -25 0
-6 -16 -20 0
-6 -16 -26 0
-6 -20 -26 0
-16 -20 -26 0
-2 -7 -11 -17 0
-2 -7 -11 -21 0
-2 -7 -11 -27 0
-2 -7 -17 -21 0
-2 -7 -17 -27 0
-2 -7 -21 -27 0
-2 -11 -17 -21 0
-2 -11 -17 -27 0
-2 -11 -21 -27 0
-2 -17 -21 -27 0
-7 -11 -17 -21 0
-7 -11 -17 -27 0
-7 -11 -21 -27 0
-7 -17 -21 -27 0
-11 -17 -21 -27 0
-8 -12 -18 0
-8 -12 -22 0
-8 -12 -28 0
-8 -18 -22 0
-8 -18 -28 0
-8 -22 -28 0
-12 -18 -22 0
-12 -18 -28 0
-12 -22 -28 0
-18 -22 -28 0
-8 -12 -18 -22 0
-8 -12 -18 -28 0
-8 -12 -22 -28 0
-8 -18 -22 -28 0
-12 -18 -22 -28 0
-3 -9 -13 0
-3 -9 -23 0
-3 -9 -29 0
-3 -13 -23 0
-3 -13 -29 0
-3 -23 -29 0
-9 -13 -23 0
-9 -13 -29 0
-9 -23 -29 0
-13 -23 -29 0
-4 -10 -14 0
-4 -10 -14 -24 0
-4 -10 -24 0
-4 -14 -24 0
-10 -14 -24 0
